c turning on binary mode checking
c parsing input formula with 202048 variables and 780985 clauses
c finished parsing, read 2519346 bytes from proof file
c detected empty clause; start verification via backward checking
c 5245 of 780985 clauses in core                            
c 1712 of 99268 lemmas in core using 32062 resolution steps
c 0 RAT lemmas in core; 189 redundant literals in core lemmas
s VERIFIED
c verification time: 1.321 seconds
